jobs 122 
horizon 667 
PRECEDENCE:
1    
2    1
3    1
4    1
5    3
6    3
7    6
8    4
9    4
10    3
11    7
12    2
13    4
14    12
15    8
16    9
17    12
18    11
19    10 17
20    12
21    6
22    15
23    8
24    17
25    5 24
26    5
27    23
28    16
29    23
30    15
31    29
32    14
33    13 18
34    14
35    23
36    33
37    28 30
38    6
39    15
40    39
41    33
42    30
43    32 36
44    13
45    33
46    21
47    38
48    32 35
49    43
50    49
51    17
52    49
53    10
54    39 53
55    34
56    22
57    46
58    20 47
59    9 56
60    8
61    18
62    55
63    52
64    35
65    2
66    14
67    51 62
68    61
69    21
70    46
71    10 45 60
72    38
73    18
74    40 63
75    2 42
76    20
77    22 26 43
78    13 48
79    67 73
80    59
81    71
82    79
83    19
84    72
85    25
86    72 77
87    58 74
88    54
89    80
90    27 88
91    44 51 74
92    86
93    65 68
94    73
95    38 70
96    31
97    22
98    51 70 74
99    5 96
100    37 90 93
101    25
102    82 91
103    56 81 99
104    69
105    55 87 103
106    21 66
107    89 97 102
108    85
109    64 106
110    9 50
111    61 101
112    75 76 78
113    59 79 110
114    84 98
115    73 104 105
116    41 107 112
117    92 113 116
118    83 94 95
119    100 109 111
120    114 115 118
121    57 108 117
122    119 120 121
RESOURCEAVAILABILITY 14
REQUESTS/DURATIONS: 
 1 0 0 
 2 6 9 
 3 4 0 
 4 2 2 
 5 2 0 
 6 3 1 
 7 10 6 
 8 2 0 
 9 7 0 
 10 4 10 
 11 6 3 
 12 4 0 
 13 7 0 
 14 4 0 
 15 10 0 
 16 9 0 
 17 1 0 
 18 9 0 
 19 10 0 
 20 5 0 
 21 9 5 
 22 8 7 
 23 3 9 
 24 3 9 
 25 7 10 
 26 8 0 
 27 10 0 
 28 9 4 
 29 5 0 
 30 2 0 
 31 10 0 
 32 6 0 
 33 9 0 
 34 10 0 
 35 6 0 
 36 9 0 
 37 10 8 
 38 9 0 
 39 2 0 
 40 8 4 
 41 2 0 
 42 2 9 
 43 2 0 
 44 8 0 
 45 2 3 
 46 2 0 
 47 1 0 
 48 2 0 
 49 7 0 
 50 5 9 
 51 7 0 
 52 2 0 
 53 9 3 
 54 9 0 
 55 1 0 
 56 10 0 
 57 10 0 
 58 8 0 
 59 9 4 
 60 3 0 
 61 4 0 
 62 2 0 
 63 7 0 
 64 10 0 
 65 2 4 
 66 5 4 
 67 5 2 
 68 3 0 
 69 2 0 
 70 6 0 
 71 3 0 
 72 7 5 
 73 6 2 
 74 1 2 
 75 7 5 
 76 5 0 
 77 4 0 
 78 5 0 
 79 6 0 
 80 10 0 
 81 1 7 
 82 9 0 
 83 1 0 
 84 8 0 
 85 6 0 
 86 9 3 
 87 2 3 
 88 7 0 
 89 3 0 
 90 7 9 
 91 10 0 
 92 1 0 
 93 5 8 
 94 5 4 
 95 3 0 
 96 1 0 
 97 3 0 
 98 5 4 
 99 5 0 
100 10 0 
101 6 0 
102 5 0 
103 8 9 
104 10 5 
105 10 0 
106 6 6 
107 2 0 
108 2 3 
109 2 3 
110 10 7 
111 1 8 
112 3 0 
113 4 0 
114 5 3 
115 9 5 
116 3 0 
117 1 0 
118 10 0 
119 3 0 
120 8 0 
121 9 6 
122 0 0 
